
Starting CP-SAT solver v9.15.6755
Parameters: random_seed: 2026073646 max_time_in_seconds: 2500 log_search_progress: true cp_model_presolve: true linearization_level: 2 num_search_workers: 4 cp_model_probing_level: 2 symmetry_level: 2

Initial satisfaction model '': (model_fingerprint: 0x67b3f21547646ead)
#Variables: 724 (608 primary variables)
  - 724 Booleans in [0,1]
#kBoolAnd: 110 (#enforced: 110) (#literals: 330)
#kBoolOr: 110 (#enforced: 110) (#literals: 220)
#kExactlyOne: 87 (#literals: 261)
#kLinear1: 32 (#enforced: 6)
#kLinear2: 336 (#enforced: 336) (#complex_domain: 110)
#kLinear3: 1'600 (#enforced: 6)
#kLinearN: 1'132 (#enforced: 243) (#terms: 9'111)

Starting presolve at 0.00s
  6.48e-04s  0.00e+00d  [DetectDominanceRelations] 
  8.82e-03s  0.00e+00d  [PresolveToFixPoint] #num_loops=3 #num_dual_strengthening=1 
  3.47e-05s  0.00e+00d  [ExtractEncodingFromLinear] #potential_supersets=86 
  3.03e-04s  0.00e+00d  [DetectDuplicateColumns] 
  9.78e-05s  0.00e+00d  [DetectDuplicateConstraints] #duplicates=5 
[Symmetry] Graph for symmetry has 4'868 nodes and 15'706 arcs.
[Symmetry] Symmetry computation done. time: 0.00124129 dtime: 0.00179968
[SAT presolve] num removable Booleans: 220 / 626
[SAT presolve] num trivial clauses: 0
[SAT presolve] [0s] clauses:2'724 literals:7'408 vars:506 one_side_vars:66 simple_definition:1 singleton_clauses:0
[SAT presolve] [0.000218326s] clauses:2'723 literals:7'401 vars:506 one_side_vars:66 simple_definition:1 singleton_clauses:0
[SAT presolve] [0.000598744s] clauses:2'402 literals:6'896 vars:389 one_side_vars:68 simple_definition:24 singleton_clauses:0
  1.17e-04s  0.00e+00d  [DetectDuplicateConstraintsWithDifferentEnforcements] 
  5.61e-03s  2.71e-03d  [Probe] #probed=1'293 #fixed_bools=23 #equiv=14 #new_binary_clauses=693 
  5.54e-04s  3.20e-04d  [MaxClique] Merged 653 constraints with 1'435 literals into 590 constraints with 1'320 literals
  8.43e-04s  0.00e+00d  [DetectDominanceRelations] 
  3.13e-03s  0.00e+00d  [PresolveToFixPoint] #num_loops=1 #num_dual_strengthening=1 
  1.16e-03s  0.00e+00d  [ProcessAtMostOneAndLinear] 
  1.08e-04s  0.00e+00d  [DetectDuplicateConstraints] #duplicates=12 
  1.02e-04s  0.00e+00d  [DetectDuplicateConstraintsWithDifferentEnforcements] 
  2.27e-03s  8.48e-05d  [DetectDominatedLinearConstraints] #relevant_constraints=822 #num_inclusions=420 #num_redundant=7 
  1.30e-04s  0.00e+00d  [DetectDifferentVariables] 
  7.52e-04s  8.81e-05d  [ProcessSetPPC] #relevant_constraints=3'103 #num_inclusions=231 
  2.73e-04s  3.41e-05d  [TransformClausesToExactlyOne] #num_amos=535 #num_clauses=1'759 #num_checked=1'759 
  5.18e-05s  0.00e+00d  [DetectEncodedComplexDomains] 
  3.38e-05s  3.30e-07d  [FindAlmostIdenticalLinearConstraints] #num_tested_pairs=4 
  8.93e-04s  1.36e-03d  [FindBigAtMostOneAndLinearOverlap] 
  1.39e-03s  1.23e-03d  [FindBigVerticalLinearOverlap] #blocks=1 #saved_nz=34 
  3.84e-04s  6.89e-04d  [FindBigHorizontalLinearOverlap] #linears=452 
  3.29e-04s  2.78e-05d  [MergeClauses] #num_collisions=11 #num_merges=11 #num_saved_literals=43 
  8.33e-04s  0.00e+00d  [DetectDominanceRelations] 
  3.13e-03s  0.00e+00d  [PresolveToFixPoint] #num_loops=2 #num_dual_strengthening=1 
  8.12e-04s  0.00e+00d  [DetectDominanceRelations] 
  2.96e-03s  0.00e+00d  [PresolveToFixPoint] #num_loops=1 #num_dual_strengthening=1 
  1.62e-04s  0.00e+00d  [DetectDuplicateColumns] 
  9.18e-05s  0.00e+00d  [DetectDuplicateConstraints] 
[Symmetry] Graph for symmetry has 4'425 nodes and 13'782 arcs.
[Symmetry] Symmetry computation done. time: 0.00101151 dtime: 0.00143762
[SAT presolve] num removable Booleans: 102 / 475
[SAT presolve] num trivial clauses: 0
[SAT presolve] [0s] clauses:2'274 literals:6'606 vars:447 one_side_vars:129 simple_definition:39 singleton_clauses:0
[SAT presolve] [0.000220821s] clauses:2'273 literals:6'444 vars:447 one_side_vars:143 simple_definition:84 singleton_clauses:0
[SAT presolve] [0.000367373s] clauses:2'137 literals:6'147 vars:441 one_side_vars:168 simple_definition:65 singleton_clauses:0
  1.50e-04s  0.00e+00d  [DetectDuplicateConstraintsWithDifferentEnforcements] #without_enforcements=1 
  5.28e-03s  1.73e-03d  [Probe] #probed=1'276 #new_binary_clauses=166 
  3.66e-04s  1.89e-04d  [MaxClique] Merged 458 constraints with 984 literals into 453 constraints with 984 literals
  8.41e-04s  0.00e+00d  [DetectDominanceRelations] 
  3.01e-03s  0.00e+00d  [PresolveToFixPoint] #num_loops=1 #num_dual_strengthening=1 
  1.10e-03s  0.00e+00d  [ProcessAtMostOneAndLinear] 
  1.00e-04s  0.00e+00d  [DetectDuplicateConstraints] 
  9.49e-05s  0.00e+00d  [DetectDuplicateConstraintsWithDifferentEnforcements] 
  4.99e-03s  1.04e-04d  [DetectDominatedLinearConstraints] #relevant_constraints=814 #num_inclusions=519 
  1.56e-04s  0.00e+00d  [DetectDifferentVariables] 
  1.10e-03s  8.02e-05d  [ProcessSetPPC] #relevant_constraints=3'019 #num_inclusions=127 
  4.36e-04s  3.26e-05d  [TransformClausesToExactlyOne] #num_amos=455 #num_clauses=1'705 #num_checked=1'705 
  2.22e-04s  0.00e+00d  [DetectEncodedComplexDomains] 
  6.36e-05s  7.00e-08d  [FindAlmostIdenticalLinearConstraints] #num_tested_pairs=1 
  1.28e-03s  1.30e-03d  [FindBigAtMostOneAndLinearOverlap] 
  2.04e-03s  1.15e-03d  [FindBigVerticalLinearOverlap] #blocks=1 #saved_nz=34 
  5.80e-04s  6.59e-04d  [FindBigHorizontalLinearOverlap] #linears=450 
  5.24e-04s  2.64e-05d  [MergeClauses] #num_collisions=73 #num_merges=73 #num_saved_literals=196 
  1.20e-03s  0.00e+00d  [DetectDominanceRelations] 
  4.87e-03s  0.00e+00d  [PresolveToFixPoint] #num_loops=2 #num_dual_strengthening=1 
  8.73e-04s  0.00e+00d  [DetectDominanceRelations] 
  3.53e-03s  0.00e+00d  [PresolveToFixPoint] #num_loops=1 #num_dual_strengthening=1 
  1.49e-04s  0.00e+00d  [DetectDuplicateColumns] 
  1.05e-04s  0.00e+00d  [DetectDuplicateConstraints] 
[Symmetry] Graph for symmetry has 4'247 nodes and 13'070 arcs.
[Symmetry] Symmetry computation done. time: 0.00103735 dtime: 0.00140956
[SAT presolve] num removable Booleans: 96 / 472
[SAT presolve] num trivial clauses: 0
[SAT presolve] [0s] clauses:2'137 literals:6'147 vars:445 one_side_vars:168 simple_definition:66 singleton_clauses:0
[SAT presolve] [0.000234866s] clauses:2'136 literals:6'143 vars:445 one_side_vars:168 simple_definition:66 singleton_clauses:0
[SAT presolve] [0.000299637s] clauses:2'136 literals:6'143 vars:445 one_side_vars:168 simple_definition:66 singleton_clauses:0
  1.55e-04s  0.00e+00d  [DetectDuplicateConstraintsWithDifferentEnforcements] 
  5.73e-03s  1.73e-03d  [Probe] #probed=1'282 #new_binary_clauses=178 
  3.79e-04s  1.92e-04d  [MaxClique] Merged 456 constraints with 980 literals into 455 constraints with 979 literals
  9.37e-04s  0.00e+00d  [DetectDominanceRelations] 
  3.29e-03s  0.00e+00d  [PresolveToFixPoint] #num_loops=1 #num_dual_strengthening=1 
  1.17e-03s  0.00e+00d  [ProcessAtMostOneAndLinear] 
  1.25e-04s  0.00e+00d  [DetectDuplicateConstraints] 
  1.04e-04s  0.00e+00d  [DetectDuplicateConstraintsWithDifferentEnforcements] 
  2.90e-03s  8.49e-05d  [DetectDominatedLinearConstraints] #relevant_constraints=812 #num_inclusions=430 
  1.35e-04s  0.00e+00d  [DetectDifferentVariables] 
  7.73e-04s  7.71e-05d  [ProcessSetPPC] #relevant_constraints=3'025 #num_inclusions=116 
  2.97e-04s  3.27e-05d  [TransformClausesToExactlyOne] #num_amos=455 #num_clauses=1'711 #num_checked=1'711 
  1.71e-04s  0.00e+00d  [DetectEncodedComplexDomains] 
  5.89e-05s  1.00e-07d  [FindAlmostIdenticalLinearConstraints] #num_tested_pairs=1 
  8.90e-04s  1.25e-03d  [FindBigAtMostOneAndLinearOverlap] 
  1.52e-03s  1.14e-03d  [FindBigVerticalLinearOverlap] #blocks=2 #saved_nz=218 
  4.16e-04s  5.82e-04d  [FindBigHorizontalLinearOverlap] #linears=452 
  3.69e-04s  2.65e-05d  [MergeClauses] #num_collisions=73 #num_merges=73 #num_saved_literals=196 
  8.91e-04s  0.00e+00d  [DetectDominanceRelations] 
  3.35e-03s  0.00e+00d  [PresolveToFixPoint] #num_loops=2 #num_dual_strengthening=1 
  5.97e-05s  0.00e+00d  [MergeNoOverlap] 
  4.34e-05s  0.00e+00d  [MergeNoOverlap2D] 

Presolve summary:
  - 44 affine relations were detected.
  - rule 'TODO dual: only one blocking constraint?' was applied 767 times.
  - rule 'TODO linear inclusion: superset is equality' was applied 481 times.
  - rule 'affine: new relation' was applied 44 times.
  - rule 'at_most_one: removed literals' was applied 109 times.
  - rule 'at_most_one: size one' was applied 108 times.
  - rule 'at_most_one: transformed into max clique' was applied 3 times.
  - rule 'bool_or: implications' was applied 69 times.
  - rule 'bool_or: only one literal' was applied 12 times.
  - rule 'bool_or: removed enforcement literal' was applied 573 times.
  - rule 'deductions: 865 stored' was applied 1 time.
  - rule 'duplicate: merged rhs of linear constraint' was applied 16 times.
  - rule 'duplicate: removed constraint' was applied 17 times.
  - rule 'duplicate: removed enforced constraint' was applied 1 time.
  - rule 'enforcement: false literal' was applied 40 times.
  - rule 'enforcement: true literal' was applied 14 times.
  - rule 'exactly_one: removed literals' was applied 32 times.
  - rule 'exactly_one: satisfied' was applied 3 times.
  - rule 'exactly_one: singleton' was applied 2 times.
  - rule 'exactly_one: size two' was applied 30 times.
  - rule 'exactly_one: x and not(x)' was applied 11 times.
  - rule 'incompatible linear: add implication' was applied 111 times.
  - rule 'linear + amo: empty after processing' was applied 6 times.
  - rule 'linear + amo: extracted enforcement literal' was applied 54 times.
  - rule 'linear inclusion: redundant containing constraint' was applied 3 times.
  - rule 'linear inclusion: redundant included constraint' was applied 3 times.
  - rule 'linear inclusion: sparsify superset' was applied 1 time.
  - rule 'linear matrix: common vertical rectangle' was applied 4 times.
  - rule 'linear1: x in domain' was applied 26 times.
  - rule 'linear2: convert ax + by != cte to clauses' was applied 258 times.
  - rule 'linear2: convert implied ax + by == cte to clauses' was applied 118 times.
  - rule 'linear2: implied ax + by = cte has only one solution' was applied 8 times.
  - rule 'linear: always true' was applied 418 times.
  - rule 'linear: empty' was applied 1 time.
  - rule 'linear: extracted at most one (max)' was applied 1 time.
  - rule 'linear: fixed or dup variables' was applied 880 times.
  - rule 'linear: negative clause' was applied 1'293 times.
  - rule 'linear: negative reified and' was applied 78 times.
  - rule 'linear: never in domain' was applied 6 times.
  - rule 'linear: positive at most one' was applied 34 times.
  - rule 'linear: reduced variable domains' was applied 5 times.
  - rule 'linear: remapped using affine relations' was applied 22 times.
  - rule 'new_bool: integer encoding' was applied 6 times.
  - rule 'presolve: 89 unused variables removed.' was applied 1 time.
  - rule 'presolve: iteration' was applied 3 times.
  - rule 'probing: bool_or reduced to implication' was applied 29 times.
  - rule 'probing: simplified clauses' was applied 9 times.
  - rule 'setppc: bool_or in at_most_one' was applied 7 times.
  - rule 'setppc: removed dominated constraints' was applied 77 times.
  - rule 'variables: add encoding constraint' was applied 6 times.

Presolved satisfaction model '': (model_fingerprint: 0x71b96049df08641c)
#Variables: 476 (410 primary variables)
  - 472 Booleans in [0,1]
  - 3 in [0,2]
  - 1 in [0,9]
#kAtMostOne: 32 (#literals: 133)
#kBoolAnd: 268 (#enforced: 268) (#literals: 691)
#kBoolAndClauses: 73 (#enforced: 73 #multi: 73) (#literals: 342)
#kBoolOr: 1'565 (#literals: 4'755)
#kExactlyOne: 47 (#literals: 183)
#kLinear1: 12 (#enforced: 12)
#kLinearN: 814 (#enforced: 116) (#terms: 5'475)
[Symmetry] Graph for symmetry has 3'993 nodes and 12'848 arcs.
[Symmetry] Symmetry computation done. time: 0.00091919 dtime: 0.0013554

Preloading model.
#Model   0.11s var:476/476 constraints:2811/2811

Starting search at 0.11s with 4 workers.
3 full problem subsolvers: [default_lp, max_lp, no_lp]
1 first solution subsolver: [fj]
2 interleaved subsolvers: [feasibility_pump, rins/rens]
2 helper subsolvers: [neighborhood_helper, synchronization_agent]

#Model   0.22s var:475/476 constraints:2810/2811
#Model   0.52s var:474/476 constraints:2809/2811
#Model  25.44s var:473/476 constraints:2807/2811
#Model 117.53s var:472/476 constraints:2805/2811
#Model 248.95s var:471/476 constraints:2787/2811

Task timing                   n [     min,      max]      avg      dev     time         n [     min,      max]      avg      dev    dtime
        'default_lp':         1 [  41.66m,   41.66m]   41.66m   0.00ns   41.66m         2 [  1.75ms,   41.60m]   20.80m   20.80m   41.60m
  'feasibility_pump':     12397 [877.15us, 161.82ms]   1.53ms   1.47ms   18.99s     12396 [279.31us, 143.34ms] 292.96us   1.28ms    3.63s
                'fj':      8958 [109.79ms, 232.07ms] 138.38ms   8.79ms   20.66m      8958 [100.00ms, 100.14ms] 100.02ms  14.88us   14.93m
            'max_lp':         1 [  41.66m,   41.66m]   41.66m   0.00ns   41.66m         2 [ 95.70ms,   56.87m]   28.43m   28.43m   56.87m
             'no_lp':         1 [  41.66m,   41.66m]   41.66m   0.00ns   41.66m         2 [  1.50ms,    1.47h]   44.05m   44.05m    1.47h
         'rins/rens':     10848 [577.00us, 234.94ms] 114.28ms  42.30ms   20.66m     10838 [282.07us, 100.29ms]  68.53ms  36.95ms   12.38m

Search stats     Bools   Conflicts    Branches  Restarts  BacktrackToRoot   Backtrack     BoolPropag  IntegerPropag
  'default_lp':    472     222'701   8'795'824     1'358        1'323'484   1'878'878     81'171'280     97'584'327
      'max_lp':    472      68'954  13'359'077       509        1'925'410   2'400'902    114'619'365    154'746'512
       'no_lp':    472  22'019'827  29'672'416    74'032          578'638  22'440'264  1'817'592'027    458'381'316

SAT formula      Fixed  Equiv  Total  VarLeft  BinaryClauses  PermanentClauses  TemporaryClauses
  'default_lp':      5      3    472      464          2'462            48'031            10'914
      'max_lp':      5      3    472      464          2'462            47'310             7'386
       'no_lp':      5      3    472      464          2'462           142'472            11'408

SAT stats        ClassicMinim   LitRemoved  LitRemovedBinary   LitLearned  LitForgotten   Subsumed
  'default_lp':       195'533    2'529'683         1'259'890    6'924'576     4'574'230     77'395
      'max_lp':        58'915      678'262           392'833    1'730'793       894'064     27'451
       'no_lp':    19'869'259  367'825'333       104'201'803  531'127'862   416'499'994  6'208'384

Vivification       Clauses   Decisions  LitTrue  Subsumed  LitRemoved  DecisionReused  Conflicts
  'default_lp':  1'377'308   8'228'234        2    10'423     126'516         371'032      1'089
      'max_lp':  1'954'048  12'885'441        0    11'519     140'116         449'351      1'294
       'no_lp':    424'892   3'746'958        0    26'198     355'882         103'187      1'133

Clause deletion    at_true  l_and_not(l)  to_binary  sub_conflict  sub_extra  sub_decisions  sub_eager  sub_vivify  sub_probing  sub_inpro  blocked  eliminated   forgotten    promoted   conflicts
    'default_lp':      557            13          3        76'325        529          2'611      1'070      10'423          262      5'439        0           0     124'076     435'106     222'701
        'max_lp':      419             9          3        27'201        143            604        250      11'519          344      2'411        0           0      28'532     114'696      68'954
         'no_lp':    1'341            25         25     6'105'628     40'356        269'836    102'756      26'198          671    111'395        0           0  15'212'742  49'656'322  22'019'827

Lp stats         Component  Iterations  AddedCuts  OPTIMAL  DUAL_F.  DUAL_U.
  'default_lp':          1  30'194'897     90'166  330'102        1  173'700
      'max_lp':          1  13'408'808     69'547   30'123   45'251   28'209

Lp dimension        Final dimension of first component
  'default_lp':   382 rows, 327 columns, 14697 entries
      'max_lp':  1818 rows, 476 columns, 38623 entries

Lp debug         CutPropag  CutEqPropag   Adjust  Overflow        Bad  BadScaling
  'default_lp':          2           12  173'697         0  2'725'181           0
      'max_lp':          0          184   28'203         0  2'058'129           0

Lp pool          Constraints  Updates  Simplif  Merged  Shortened  Split  Strengthened       Cuts/Call
  'default_lp':        9'920   20'600        0       0        140      0             0  90'166/119'119
      'max_lp':       12'659   20'773        0       4         96      0         1'638  69'547/117'707

Lp Cut            default_lp  max_lp
          CG_FF:       1'326     128
           CG_K:         731      15
          CG_KL:         658       7
           CG_R:       1'466      87
          CG_RB:          10      12
         CG_RBP:           -       2
         Clique:           -     165
             IB:          40       7
       MIR_1_FF:         518     728
        MIR_1_K:         121      44
       MIR_1_KL:         324      23
        MIR_1_R:         483     393
       MIR_1_RB:           9       4
      MIR_1_RBP:           -       3
      MIR_1_RLT:           -   8'986
       MIR_2_FF:         446     679
        MIR_2_K:         106     232
       MIR_2_KL:         230      63
        MIR_2_R:         716     641
       MIR_2_RB:           5      14
      MIR_2_RBP:           -      10
       MIR_3_FF:         235     197
        MIR_3_K:          34      51
       MIR_3_KL:          84      12
        MIR_3_R:         406     268
       MIR_3_RB:           4      13
      MIR_3_RBP:           3       6
       MIR_4_FF:          64      53
        MIR_4_K:           9      17
       MIR_4_KL:          24       5
        MIR_4_R:         305     165
       MIR_4_RB:           4      15
      MIR_4_RBP:           2       7
       MIR_5_FF:          12      22
        MIR_5_K:           4       5
       MIR_5_KL:           1       1
        MIR_5_R:         192     165
       MIR_5_RB:           6      14
      MIR_5_RBP:           2       5
       MIR_6_FF:          11       7
        MIR_6_K:           1       4
       MIR_6_KL:           -       1
        MIR_6_R:         174     137
       MIR_6_RB:           7       8
      MIR_6_RBP:           7       5
   ZERO_HALF_FF:         412     491
    ZERO_HALF_K:          76      11
   ZERO_HALF_KL:          93       7
    ZERO_HALF_R:      80'713  55'473
   ZERO_HALF_RB:          14       3
  ZERO_HALF_RBP:          78     136

LNS stats       Improv/Calls  Closed  Difficulty  TimeLimit
  'rins/rens':   10840/10840     50%    7.51e-01       0.10

LS stats                                    Batches  Restarts/Perturbs    LinMoves   GenMoves  CompoundMoves  Bactracks  WeightUpdates  ScoreComputed
                             'fj_restart':      540                132  15'397'854          0              0          0     12'341'095     21'954'030
                    'fj_restart_compound':      464                121           0  4'615'725        292'842  2'161'200         12'035     81'860'694
                'fj_restart_compound_obj':      402                130           0  3'993'638        293'879  1'849'641          9'383     70'793'073
            'fj_restart_compound_perturb':      672                131           0  6'759'864        328'760  3'215'324         20'996    119'793'173
        'fj_restart_compound_perturb_obj':      424                122           0  4'259'972        281'797  1'988'816         10'466     74'734'077
                       'fj_restart_decay':      333                101   9'767'423          0              0          0        427'486      5'886'736
              'fj_restart_decay_compound':      382                138           0  4'045'338        692'472  1'676'102          4'862     67'543'946
          'fj_restart_decay_compound_obj':      349                 97           0  3'835'451        654'492  1'590'270          4'408     61'918'395
      'fj_restart_decay_compound_perturb':      658                122           0  7'492'851      1'273'894  3'109'156          8'267    117'287'042
  'fj_restart_decay_compound_perturb_obj':      758                136           0  8'675'263      1'486'048  3'594'264          9'568    135'071'438
                   'fj_restart_decay_obj':      485                127  14'231'138          0              0          0        622'845      8'570'268
               'fj_restart_decay_perturb':      830                118  24'379'713          0              0          0      1'066'526     14'713'508
           'fj_restart_decay_perturb_obj':      435                125  12'769'107          0              0          0        558'867      7'692'819
                         'fj_restart_obj':    1'322                114  38'477'541          0              0          0     31'523'684     53'856'246
                     'fj_restart_perturb':      492                137  14'118'107          0              0          0     11'244'597     20'359'500
                 'fj_restart_perturb_obj':      412                119  12'065'523          0              0          0      9'331'188     17'044'354

Solution repositories    Added  Queried  Synchro
    'alternative_path':      0        0        0
      'best_solutions':      0        0        0
   'fj solution hints':  1'962        0    1'962
        'lp solutions':    721   10'848      720
                'pump':      0        0

Improving bounds shared    Num  Sym
            'default_lp':    3    0
                'max_lp':    1    0
                 'no_lp':    1    0

Clauses shared    #Exported  #Imported  #BinaryRead  #BinaryTotal
   'default_lp':      2'274     55'811          864           864
       'max_lp':      1'829     55'583          864           864
        'no_lp':     55'781      3'878          864           864

LRAT_status: NA
CpSolverResponse summary:
status: UNKNOWN
objective: NA
best_bound: NA
integers: 340
booleans: 472
conflicts: 222701
branches: 8795824
propagations: 81171280
integer_propagations: 97584327
restarts: 1358
lp_iterations: 30194897
walltime: 2500.04
usertime: 2500.04
deterministic_time: 12836.8
gap_integral: 0

{
  "board_size": 22,
  "parity_proved": 0,
  "target": 34,
  "child_id": 1546,
  "child_count": 2640,
  "partition": "unknown_pair_x_diag_plus_twos_x_diag_minus_twos",
  "build_seconds": 0.07839393615722656,
  "workers": 4,
  "requested_seed": 2026073646,
  "effective_seed": 2026073646,
  "main_diagonal_pair": [
    3,
    17
  ],
  "pair_index": 70,
  "diag_plus_twos": 15,
  "diag_minus_twos": 16,
  "pair_excess": 0,
  "residual_certificate_slack": 112,
  "analytic_minimum_line_defect": 48,
  "analytic_defect_details": {
    "row_costs": {
      "12": 6,
      "13": 3,
      "14": 0,
      "15": 0,
      "16": 0,
      "17": 0
    },
    "column_costs": {
      "12": 6,
      "13": 3,
      "14": 0,
      "15": 0,
      "16": 0,
      "17": 0
    },
    "plus_cost": 48,
    "minus_cost": 0,
    "row_column_minimum": 0
  },
  "maximal_line_constraints": 2455,
  "analytic_infeasible": false,
  "allowed_points": 242,
  "status": "UNKNOWN",
  "proof_method": "cp_sat_all_lines_with_certificate_profile_cuts",
  "elapsed_seconds": 2500.0381445884705,
  "branches": 8795824,
  "conflicts": 222701
}
